c Random generated cnf formula, satisfiable: true
p cnf 10 50
8 -1 -4 0
-3 7 10 0
-3 -8 -9 0
3 -9 -8 0
-9 -8 7 0
5 2 8 0
-4 -9 -7 0
9 7 -4 0
7 -2 -5 0
2 -5 10 0
-6 2 -1 0
-2 -7 1 0
5 2 7 0
10 -5 1 0
5 -7 10 0
-3 -4 -7 0
-10 6 2 0
8 9 2 0
6 -9 8 0
-8 6 10 0
9 -10 8 0
-7 -1 -3 0
-7 -9 6 0
-5 -7 4 0
3 -8 -7 0
-4 -8 -6 0
-6 -7 -2 0
2 5 9 0
4 -1 -10 0
1 10 -2 0
-2 3 8 0
-9 7 -1 0
-3 -9 10 0
-8 -9 10 0
1 -10 -8 0
-1 2 -8 0
-8 -10 -3 0
6 -8 -2 0
3 -8 6 0
3 8 9 0
-9 -6 -8 0
3 10 -5 0
2 -1 4 0
3 -7 -5 0
9 5 4 0
-4 -1 6 0
2 6 1 0
5 6 -1 0
-6 9 -4 0
4 6 -3 0
